Optimal - objective value 9.00000000
      0 x_0_0                       1         0.666666666666667
      1 x_1_0                       1                       0
      5 x_2_2                       1                       0
      9 x_3_3                       1         0.277777777777778
     14 x_4_4                       1                       0
     15 x_5_0                       1                       0
     27 x_6_6                       1                       1
     35 x_7_7                       1                       0
     42 x_8_6                       1                       0
     47 x_9_2                       1                       0
     65 x_10_10                     1                       0
     77 x_11_11                     1                       1
     81 x_12_3                      1                       0
     97 x_13_6                      1                       0
    119 x_14_14                     1         0.555555555555556
    134 x_15_14                     1                       0
    140 x_16_4                      1         0.333333333333333
    160 x_17_7                      1                       0
    182 x_18_11                     1                       0
    197 x_19_7                      1                       0
    224 x_20_14                     1         -0.222222222222222
    233 x_21_2                      1         -0.333333333333333
    257 x_22_4                      1         -0.111111111111111
    280 x_23_4                      1                       0
    306 x_24_6                      1                       0
    329 x_25_4                      1                       0
    353 x_26_2                      1         0.111111111111111
    380 x_27_2                      1                       0
    417 x_28_11                     1                       0
    441 x_29_6                      1                       0
    475 x_30_10                     1                       0
    496 x_31_0                      1                       0
    538 x_32_10                     1         -0.111111111111111
    572 x_33_11                     1                       0
    602 x_34_7                      1         0.111111111111111
    640 x_35_10                     1                       0
    680 x_36_14                     1         -0.333333333333333
    705 x_37_2                      1         -0.111111111111111
    744 x_38_3                      1         -0.111111111111111
    782 x_39_2                      1         -0.333333333333333
    823 x_40_3                      1         -0.333333333333333
    871 x_41_10                     1                       0
    913 x_42_10                     1                       0
    949 x_43_3                      1                       0
    997 x_44_7                      1                       0
   1046 x_45_11                     1                       0
   1087 x_46_6                      1         -0.333333333333333
   1132 x_47_4                      1                       0
   1180 x_48_4                      1         0.333333333333333
   1229 x_49_4                      1                       0
   1285 x_50_10                     1                       0
   1336 x_51_10                     1                       0
   1389 x_52_11                     1                       0
   1433 x_53_2                      1         0.333333333333333
   1492 x_54_7                      1                       0
   1551 x_55_11                     1                       0
   1599 x_56_3                      1         0.111111111111111
   1663 x_57_10                     1         0.611111111111111
   1722 x_58_11                     1                       0
   1776 x_59_6                      1                       0
